networks/zoo_70_714/zoo_70_714-lower.txt
Number of groups: 31
Flow 1: {1 8 0} {8 3 0} {3 38 0} 
Flow 2: {1 4 0} {4 39 0} 
Flow 3: {8 5 0} {5 40 0} 
Flow 4: {1 2 0} {2 7 0} {7 6 0} {6 41 0} 
Flow 5: {8 43 0} 
Flow 6: {6 18 0} {18 19 0} {19 9 0} {9 44 0} 
Flow 7: {6 24 0} {24 23 0} {23 22 0} {22 17 0} {17 16 0} {16 11 0} {11 46 0} 
Flow 8: {8 26 0} {26 31 0} {31 30 0} {30 29 0} {29 28 0} {28 14 0} {14 13 0} {13 12 0} {12 47 0} 
Flow 9: {13 48 0} 
Flow 10: {14 49 0} 
Flow 11: {31 21 0} {21 15 0} {15 50 0} 
Flow 12: {16 51 0} 
Flow 13: {17 52 0} 
Flow 14: {18 53 0} 
Flow 15: {19 54 0} 
Flow 16: {25 20 0} {20 55 0} 
Flow 16: {24 25 0} Flow 17: {21 56 0} 
Flow 18: {22 57 0} 
Flow 19: {23 58 0} 
Flow 20: {24 59 0} 
Flow 21: {25 60 0} 
Flow 22: {26 61 0} 
Flow 23: {4 27 0} {27 62 0} 
Flow 24: {29 64 0} 
Flow 25: {30 65 0} 
Flow 26: {31 66 0} 
Flow 27: {31 32 0} {32 67 0} 
Flow 28: {32 33 0} {33 68 0} 
Flow 29: {31 35 0} {35 34 0} {34 69 0} 
Flow 30: {35 70 0} 
Flow 31: {2 1 0} {1 36 0} 
Flow 39: {11 12 0} Flow 62: {3 8 0} {5 6 0} Flow 69: {4 1 0} Flow 70: {27 3 0} Flow 98: {5 8 0} {8 1 0} Flow 120: {3 27 0} Flow 128: {6 5 0} Flow 133: {12 13 0} Flow 144: {7 2 0} Flow 155: {9 10 0} {10 15 0} Flow 202: {15 21 0} {21 31 0} {31 26 0} {26 8 0} Flow 205: {10 9 0} {9 19 0} {19 18 0} {18 6 0} Flow 233: {11 16 0} {16 17 0} {17 22 0} {22 23 0} {23 24 0} {24 6 0} Flow 240: {13 14 0} Flow 241: {14 28 0} {28 29 0} {29 30 0} {30 31 0} Flow 256: {12 11 0} Flow 269: {15 10 0} Flow 355: {20 25 0} {25 24 0} Flow 504: {27 4 0} Flow 626: {32 31 0} Flow 644: {33 34 0} Flow 646: {33 32 0} Flow 660: {34 35 0} {35 31 0} Flow 687: {34 33 0} Time taken running everything: 0 seconds
