networks/zoo_70_714/zoo_70_714-lower.sol
<?xml version = "1.0" encoding="UTF-8" standalone="yes"?>
<CPLEXSolution version="1.2">
 <header
   problemName="networks/zoo_70_714/zoo_70_714-lower.lp"
   solutionName="incumbent"
   solutionIndex="-1"
   objectiveValue="31"
   solutionTypeValue="3"
   solutionTypeString="primal"
   solutionStatusValue="101"
   solutionStatusString="integer optimal solution"
   solutionMethodString="mip"
   primalFeasible="1"
   dualFeasible="1"
   MIPNodes="0"
   MIPIterations="0"
   writeLevel="3"/>
 <quality
   epInt="1.0000000000000001e-05"
   epRHS="9.9999999999999995e-07"
   maxIntInfeas="0"
   maxPrimalInfeas="0"
   maxX="1"
   maxSlack="1"/>
 <variables>
  <variable name="Y(1,3)" index="2" value="1"/>
  <variable name="Y(2,4)" index="69" value="1"/>
  <variable name="Y(3,5)" index="136" value="1"/>
  <variable name="Y(4,6)" index="203" value="1"/>
  <variable name="Y(5,8)" index="271" value="1"/>
  <variable name="Y(6,9)" index="338" value="1"/>
  <variable name="Y(7,11)" index="406" value="1"/>
  <variable name="Y(8,12)" index="473" value="1"/>
  <variable name="Y(9,13)" index="540" value="1"/>
  <variable name="Y(10,14)" index="607" value="1"/>
  <variable name="Y(11,15)" index="674" value="1"/>
  <variable name="Y(12,16)" index="741" value="1"/>
  <variable name="Y(13,17)" index="808" value="1"/>
  <variable name="Y(14,18)" index="875" value="1"/>
  <variable name="Y(15,19)" index="942" value="1"/>
  <variable name="Y(16,20)" index="1009" value="1"/>
  <variable name="Y(17,21)" index="1076" value="1"/>
  <variable name="Y(18,22)" index="1143" value="1"/>
  <variable name="Y(19,23)" index="1210" value="1"/>
  <variable name="Y(20,24)" index="1277" value="1"/>
  <variable name="Y(21,25)" index="1344" value="1"/>
  <variable name="Y(22,26)" index="1411" value="1"/>
  <variable name="Y(23,27)" index="1478" value="1"/>
  <variable name="Y(24,29)" index="1546" value="1"/>
  <variable name="Y(25,30)" index="1613" value="1"/>
  <variable name="Y(26,31)" index="1680" value="1"/>
  <variable name="Y(27,32)" index="1747" value="1"/>
  <variable name="Y(28,33)" index="1814" value="1"/>
  <variable name="Y(29,34)" index="1881" value="1"/>
  <variable name="Y(30,35)" index="1948" value="1"/>
  <variable name="Y(31,1)" index="1980" value="1"/>
  <variable name="X(1,2,4)" index="47127" value="1"/>
  <variable name="X(1,4,2)" index="47839" value="1"/>
  <variable name="X(1,8,1)" index="48552" value="1"/>
  <variable name="X(1,36,31)" index="49296" value="1"/>
  <variable name="X(2,1,31)" index="50010" value="1"/>
  <variable name="X(2,7,4)" index="50697" value="1"/>
  <variable name="X(3,8,62)" index="51469" value="1"/>
  <variable name="X(3,27,120)" index="52241" value="1"/>
  <variable name="X(3,38,1)" index="52836" value="1"/>
  <variable name="X(4,1,69)" index="53618" value="1"/>
  <variable name="X(4,27,23)" index="54286" value="1"/>
  <variable name="X(4,39,2)" index="54979" value="1"/>
  <variable name="X(5,6,62)" index="55753" value="1"/>
  <variable name="X(5,8,98)" index="56503" value="1"/>
  <variable name="X(5,40,3)" index="57122" value="1"/>
  <variable name="X(6,5,128)" index="57961" value="1"/>
  <variable name="X(6,18,6)" index="58553" value="1"/>
  <variable name="X(6,24,7)" index="59268" value="1"/>
  <variable name="X(6,41,4)" index="59979" value="1"/>
  <variable name="X(7,2,144)" index="60833" value="1"/>
  <variable name="X(7,6,4)" index="61407" value="1"/>
  <variable name="X(8,1,98)" index="62215" value="1"/>
  <variable name="X(8,3,1)" index="62832" value="1"/>
  <variable name="X(8,5,3)" index="63548" value="1"/>
  <variable name="X(8,26,8)" index="64267" value="1"/>
  <variable name="X(8,43,5)" index="64978" value="1"/>
  <variable name="X(9,10,155)" index="65842" value="1"/>
  <variable name="X(9,19,205)" index="66606" value="1"/>
  <variable name="X(9,44,6)" index="67121" value="1"/>
  <variable name="X(10,9,205)" index="68034" value="1"/>
  <variable name="X(10,15,155)" index="68698" value="1"/>
  <variable name="X(11,12,39)" index="69296" value="1"/>
  <variable name="X(11,16,233)" index="70204" value="1"/>
  <variable name="X(11,46,7)" index="70692" value="1"/>
  <variable name="X(12,11,256)" index="71655" value="1"/>
  <variable name="X(12,13,133)" index="72246" value="1"/>
  <variable name="X(12,47,8)" index="72835" value="1"/>
  <variable name="X(13,12,8)" index="73549" value="1"/>
  <variable name="X(13,14,240)" index="74495" value="1"/>
  <variable name="X(13,48,9)" index="74978" value="1"/>
  <variable name="X(14,13,8)" index="75691" value="1"/>
  <variable name="X(14,28,241)" index="76638" value="1"/>
  <variable name="X(14,49,10)" index="77121" value="1"/>
  <variable name="X(15,10,269)" index="78094" value="1"/>
  <variable name="X(15,21,202)" index="78741" value="1"/>
  <variable name="X(15,50,11)" index="79264" value="1"/>
  <variable name="X(16,11,7)" index="79974" value="1"/>
  <variable name="X(16,17,233)" index="80914" value="1"/>
  <variable name="X(16,51,12)" index="81407" value="1"/>
  <variable name="X(17,16,7)" index="82116" value="1"/>
  <variable name="X(17,22,233)" index="83056" value="1"/>
  <variable name="X(17,52,13)" index="83550" value="1"/>
  <variable name="X(18,6,205)" index="84456" value="1"/>
  <variable name="X(18,19,6)" index="84971" value="1"/>
  <variable name="X(18,53,14)" index="85693" value="1"/>
  <variable name="X(19,9,6)" index="86399" value="1"/>
  <variable name="X(19,18,205)" index="87312" value="1"/>
  <variable name="X(19,54,15)" index="87836" value="1"/>
  <variable name="X(20,25,355)" index="88890" value="1"/>
  <variable name="X(20,55,16)" index="89265" value="1"/>
  <variable name="X(21,15,11)" index="89974" value="1"/>
  <variable name="X(21,31,202)" index="90879" value="1"/>
  <variable name="X(21,56,17)" index="91408" value="1"/>
  <variable name="X(22,17,7)" index="92112" value="1"/>
  <variable name="X(22,23,233)" index="93052" value="1"/>
  <variable name="X(22,57,18)" index="93551" value="1"/>
  <variable name="X(23,22,7)" index="94254" value="1"/>
  <variable name="X(23,24,233)" index="95194" value="1"/>
  <variable name="X(23,58,19)" index="95694" value="1"/>
  <variable name="X(24,6,233)" index="96622" value="1"/>
  <variable name="X(24,23,7)" index="97110" value="1"/>
  <variable name="X(24,25,16)" index="97833" value="1"/>
  <variable name="X(24,59,20)" index="98551" value="1"/>
  <variable name="X(25,20,16)" index="99261" value="1"/>
  <variable name="X(25,24,355)" index="100314" value="1"/>
  <variable name="X(25,60,21)" index="100694" value="1"/>
  <variable name="X(26,8,202)" index="101589" value="1"/>
  <variable name="X(26,31,8)" index="102109" value="1"/>
  <variable name="X(26,61,22)" index="102837" value="1"/>
  <variable name="X(27,3,70)" index="103599" value="1"/>
  <variable name="X(27,4,504)" index="104747" value="1"/>
  <variable name="X(27,62,23)" index="104980" value="1"/>
  <variable name="X(28,14,8)" index="105679" value="1"/>
  <variable name="X(28,29,241)" index="106626" value="1"/>
  <variable name="X(29,28,8)" index="107107" value="1"/>
  <variable name="X(29,30,241)" index="108054" value="1"/>
  <variable name="X(29,64,24)" index="108551" value="1"/>
  <variable name="X(30,29,8)" index="109249" value="1"/>
  <variable name="X(30,31,241)" index="110196" value="1"/>
  <variable name="X(30,65,25)" index="110694" value="1"/>
  <variable name="X(31,21,11)" index="111394" value="1"/>
  <variable name="X(31,26,202)" index="112299" value="1"/>
  <variable name="X(31,30,8)" index="112819" value="1"/>
  <variable name="X(31,32,27)" index="113552" value="1"/>
  <variable name="X(31,35,29)" index="114268" value="1"/>
  <variable name="X(31,66,26)" index="114979" value="1"/>
  <variable name="X(32,31,626)" index="116293" value="1"/>
  <variable name="X(32,33,28)" index="116409" value="1"/>
  <variable name="X(32,67,27)" index="117122" value="1"/>
  <variable name="X(33,32,646)" index="118455" value="1"/>
  <variable name="X(33,34,644)" index="119167" value="1"/>
  <variable name="X(33,68,28)" index="119265" value="1"/>
  <variable name="X(34,33,687)" index="120638" value="1"/>
  <variable name="X(34,35,660)" index="121325" value="1"/>
  <variable name="X(34,69,29)" index="121408" value="1"/>
  <variable name="X(35,31,660)" index="122753" value="1"/>
  <variable name="X(35,34,29)" index="122836" value="1"/>
  <variable name="X(35,70,30)" index="123551" value="1"/>
 </variables>
</CPLEXSolution>
